2-dimensional/CL_04_25_02.vbp
2
1000 1000 
25
62 157 30
178 58 72
160 69 4
94 72 88
112 151 54
98 139 64
134 70 90
55 176 26
194 143 94
183 151 28
157 136 72
149 80 49
91 167 54
118 180 19
112 102 28
158 116 61
87 157 84
85 57 23
83 149 67
66 68 53
66 95 54
167 116 16
53 62 9
56 68 54
110 166 77
