datasets/2-dimensional/CL_04_25_02.txt
1000 1000 
0 30 62 157 
1 72 178 58 
2 4 160 69 
3 88 94 72 
4 54 112 151 
5 64 98 139 
6 90 134 70 
7 26 55 176 
8 94 194 143 
9 28 183 151 
10 72 157 136 
11 49 149 80 
12 54 91 167 
13 19 118 180 
14 28 112 102 
15 61 158 116 
16 84 87 157 
17 23 85 57 
18 67 83 149 
19 53 66 68 
20 54 66 95 
21 16 167 116 
22 9 53 62 
23 54 56 68 
24 77 110 166 
